GLPSOL: GLPK LP/MIP Solver, v4.55
Parameter(s) specified in the command line:
 -m tmp.mod
Reading model section from tmp.mod...
Reading data section from tmp.mod...
5157 lines were read
Generating obj...
Generating kirhoff...
Generating init_charge...
Generating batt_size...
Model has been successfully generated
GLPK Simplex Optimizer, v4.55
6164 rows, 8756 columns, 17766 non-zeros
Preprocessing...
4214 rows, 8639 columns, 17589 non-zeros
Scaling...
 A: min|aij| =  1.000e+00  max|aij| =  1.000e+00  ratio =  1.000e+00
Problem data seem to be well scaled
Constructing initial basis...
Size of triangular part is 3185
      0: obj =   0.000000000e+00  infeas =  1.883e+03 (1029)
    500: obj =   3.000000000e+00  infeas =  1.431e+03 (769)
   1000: obj =   1.120000000e+02  infeas =  3.590e+02 (596)
*  1402: obj =   1.930000000e+02  infeas =  0.000e+00 (560)
*  1500: obj =   1.090000000e+02  infeas =  0.000e+00 (559)
*  1693: obj =   4.800000000e+01  infeas =  0.000e+00 (555)
OPTIMAL LP SOLUTION FOUND
Time used:   0.5 secs
Memory used: 17.6 Mb (18445739 bytes)
#OUTPUT:
48
-12 -12 -12 -14 0 -1 0 0 0 0 0 0 -7 -1 0 -2 0 0 0 0 0 0 0 0 0 0 0 1 0 -2 0 7 0 0 0 0 0 0 0 0 0 0 -2 -11 0 -1 0 -10 -5 0 0 0 0 -3 0 0 0 0 0 0 0 0 0 0 0 0 0 0 0 0 0 0 0 0 0 0 0 0 0 0 0 0 0 0 0 0 0 0 0 0 0 0 0 0 0 0 0 0 0 0 0 0 2 0 0 0 0 0 0 0 0 0 0 0 0 0 0 0 -1 9 0 0 0 0 2 -2 0 0 0 0 0 0 0 0 0 -14 0 0 0 0 0 -2 0 0 0 0 0 0 0 0 0 0 0 0 0 0 0 0 0 0 0 0 0 0 0 0 0 0 0 0 0 0 0 0 0 0 0 0 0 0 0 0 0 0 0 0 0 0 0 0 0 0 0 0 -3 0 0 0 0 0 0 0 0 0 0 0 0 0 0 0 0 0 5 0 0 0 0 0 0 12 0 0 0 0 0 0 0 0 0 0 0 0 0 0 0 0 0 0 0 0 0 0 -24 0 0 0 0 -2 -7 0 0 0 0 0 0 0 0 0 0 0 0 0 0 0 0 0 0 0 -5 0 0 0 0 0 0 0 0 0 0 1 7 0 0 0 -7 0 0 -2 0 -9 -2 2 0 0 0 0 0 0 0 0 0 0 0 0 0 0 0 0 0 0 0 0 0 0 0 0 0 0 0 -1 -11 0 0 0 0 0 0 0 0 0 0 0 0 0 0 0 2 10 -3 0 0 0 0 0 0 0 0 0 0 5 0 0 0 0 0 0 0 0 0 0 0 0 0 0 0 0 0 0 0 0 0 0 0 0 0 0 0 0 0 0 0 0 0 0 0 0 0 0 0 0 0 0 0 0 0 0 0 0 0 0 0 0 0 0 0 0 0 0 0 0 0 0 0 0 0 0 0 0 0 0 0 0 0 0 
-10 -4 -8 -20 0 0 0 0 -16 0 -9 0 0 -1 0 0 0 0 0 0 0 2 0 0 0 0 0 0 0 0 0 0 0 0 0 0 0 0 0 0 0 0 0 0 0 0 0 -3 0 0 0 0 0 -3 0 0 -1 0 0 0 0 0 0 0 0 0 0 0 0 0 0 0 0 0 0 0 0 0 0 0 0 0 0 0 0 0 0 0 0 0 0 -2 0 0 0 0 0 0 0 0 0 1 0 0 -2 2 0 0 0 0 0 0 0 0 0 0 0 0 0 4 0 0 0 0 0 0 0 0 0 0 0 0 0 0 0 0 0 0 0 0 0 0 0 0 0 0 0 0 0 0 0 0 0 0 0 0 0 0 0 0 0 0 0 0 0 0 0 0 0 0 0 0 0 0 0 0 0 0 0 0 0 0 0 0 0 0 0 0 0 0 0 0 0 0 0 0 0 0 0 0 0 0 0 0 0 0 0 0 0 0 0 0 0 0 0 0 0 0 0 7 0 0 0 0 0 0 0 0 0 0 0 0 0 0 0 0 0 0 0 0 0 0 0 0 0 0 0 0 0 0 -2 0 0 0 0 0 0 0 0 0 0 0 0 0 0 0 0 0 0 0 0 0 0 0 0 0 0 0 0 0 0 0 0 0 0 -1 0 -2 0 -4 0 0 0 0 0 0 0 0 0 0 0 0 0 0 0 0 0 0 0 0 0 0 0 0 0 0 0 0 0 -1 -6 0 0 0 0 0 0 0 0 0 0 0 0 0 0 0 0 0 0 2 0 0 0 0 0 0 0 0 0 0 0 0 0 0 0 0 0 0 0 0 0 0 0 0 0 0 0 0 0 0 0 0 0 0 0 0 0 0 0 0 0 0 0 0 0 0 0 0 0 0 0 0 0 0 0 0 0 0 0 0 0 0 0 0 0 0 0 0 0 0 0 0 0 0 0 0 0 0 0 0 0 0 0 0 
-12 -43 -10 -75 4 -8 0 4 -22 -37 -1 0 -5 -5 0 -7 6 -4 0 -6 4 2 -5 2 0 2 -88 -1 0 -9 6 9 0 0 0 0 0 -2 0 0 2 0 2 -14 0 1 0 -30 -42 0 0 0 -5 -3 0 -85 -4 0 0 4 9 0 0 -4 0 1 0 0 0 2 0 0 0 1 0 0 0 0 1 0 0 0 -5 0 0 0 -16 0 0 0 0 0 0 0 -4 0 2 0 0 0 1 0 -1 0 0 2 0 0 4 0 -1 -4 0 2 1 1 0 0 -1 0 0 0 10 0 4 2 0 0 0 -1 -2 0 0 0 1 10 -71 0 0 0 0 2 3 -11 0 -6 0 2 -4 -3 2 0 0 0 0 0 0 0 0 0 0 0 0 3 0 0 -39 -12 0 0 5 0 -5 0 0 0 0 1 2 -2 0 -2 0 0 0 0 0 0 0 0 0 0 0 0 -3 0 -16 0 0 0 0 0 0 2 0 0 4 0 -9 0 0 0 -26 0 0 0 0 0 13 2 0 -4 -1 0 0 0 0 0 0 2 0 -1 0 0 0 0 0 2 0 0 -2 0 0 0 -4 0 0 1 -7 0 -2 0 0 0 9 0 0 0 2 0 0 0 0 -6 0 -8 0 -4 26 0 0 0 0 2 0 0 0 0 4 -1 27 0 -1 0 -7 1 1 -2 0 -3 8 -2 0 0 -3 0 0 14 -5 -2 -3 12 0 -5 0 0 5 -1 2 -2 0 0 1 15 -9 0 0 0 -13 -1 -1 4 -1 0 0 0 -2 1 0 0 0 2 0 4 0 0 -1 10 -3 2 -9 0 0 0 -2 6 -7 15 4 -26 -2 0 -4 0 0 0 0 0 0 0 0 0 0 0 0 0 0 0 0 0 0 0 0 0 0 0 0 0 0 0 0 0 0 0 0 0 0 0 0 0 0 0 0 0 0 0 0 0 0 0 0 0 0 0 0 0 0 0 0 0 0 0 0 0 0 0 0 0 0 0 0 0 0 0 
-12 -25 -9 -64 1 -8 0 0 -22 -2 -16 0 12 -5 -2 -7 17 0 -2 -17 7 -2 -70 -2 0 -7 -17 -1 2 3 -6 -12 0 0 2 -41 -23 -6 0 0 -2 0 -2 0 -1 -3 -1 -12 -9 0 -2 2 0 -3 0 -14 -4 0 9 -2 -9 0 0 -1 0 1 0 0 0 0 0 -7 0 -1 0 0 -12 1 1 1 0 0 0 0 0 0 -54 0 0 -10 0 0 0 1 0 0 -2 0 0 0 -1 0 2 0 -3 -2 9 0 -4 0 -1 0 7 1 9 -1 0 -3 -1 6 0 0 0 0 -3 -2 0 0 0 -1 0 0 0 0 0 0 -9 0 0 0 0 -2 -3 -52 1 0 -29 -5 0 3 0 0 0 0 0 0 0 0 0 0 0 -9 0 3 0 0 0 -5 0 -4 0 23 -3 0 0 0 1 -2 0 -1 0 -1 -7 0 0 0 0 0 -4 -1 0 0 0 0 0 0 -16 0 0 62 0 0 0 0 -1 0 0 0 9 0 0 0 0 0 0 0 0 0 29 0 0 -2 3 0 0 -19 -9 10 0 0 0 -1 0 -3 0 0 0 1 0 0 2 0 0 0 0 -3 0 -2 0 0 2 0 0 0 -9 5 1 1 1 0 0 0 0 0 0 5 0 0 0 0 0 -19 0 -2 0 0 0 0 -4 -2 9 0 1 38 0 0 2 -2 3 -32 8 2 -2 2 3 9 29 0 0 0 -3 5 0 0 -23 5 -2 -74 -5 4 1 0 -1 17 -53 1 0 0 -29 -1 1 2 -1 9 -10 0 0 1 0 0 0 -2 0 0 3 0 2 0 0 -2 9 -5 -1 -1 -1 0 -13 8 0 0 2 0 4 0 0 0 0 0 0 0 0 0 0 0 0 0 0 0 0 0 0 0 0 0 0 0 0 0 0 0 0 0 0 0 0 0 0 0 0 0 0 0 0 0 0 0 0 0 0 0 0 0 0 0 0 0 0 0 0 0 0 0 0 0 0 0 0 0 0 0 0 0 0 0 
-10 -5 -12 5 0 -4 0 0 5 0 -9 0 0 0 0 -5 0 0 0 5 0 0 0 0 0 0 0 1 0 0 0 0 0 0 0 0 0 -5 0 0 0 0 0 0 0 -3 0 -1 0 0 0 0 0 -1 0 0 0 0 0 0 0 0 0 0 0 0 0 0 0 0 0 0 0 0 0 0 0 0 0 0 0 0 0 0 0 0 0 0 0 0 0 2 0 0 0 0 0 0 0 0 0 0 0 0 0 0 0 0 0 0 0 0 0 0 0 0 0 -2 0 0 0 0 0 0 0 0 0 0 0 0 0 0 0 0 0 0 0 0 0 0 0 0 0 0 0 0 0 0 0 0 0 0 0 0 0 0 0 0 0 0 0 0 0 0 0 0 0 0 0 0 0 0 0 0 0 0 0 0 0 0 0 0 0 0 0 0 0 0 0 0 0 0 0 0 0 0 0 0 0 0 0 0 0 0 0 0 0 0 0 0 0 0 0 0 0 0 0 0 0 1 0 0 0 0 0 0 0 0 0 0 0 0 0 0 0 0 0 0 0 0 0 0 0 -2 0 0 0 0 0 0 0 0 0 0 0 0 0 0 0 0 0 0 0 0 0 -5 0 0 0 0 0 0 0 0 0 0 0 0 0 1 0 0 0 0 2 0 0 0 2 0 0 0 0 0 0 0 0 0 0 0 0 0 0 0 0 -5 5 0 0 0 0 0 0 0 0 0 0 0 0 -1 0 0 0 0 0 0 0 0 0 0 0 0 2 0 0 0 0 0 0 0 0 0 0 0 0 0 5 0 0 0 0 0 0 0 0 0 0 0 0 0 0 0 0 0 0 0 0 0 0 0 0 0 0 0 0 0 0 0 0 0 0 0 0 0 0 0 0 0 0 0 0 0 0 0 0 0 0 0 0 0 0 0 0 0 0 0 0 0 0 0 0 0 0 0 0 0 0 0 0 0 0 0 0 0 
-12 -42 19 -36 33 -2 0 31 -2 -2 13 0 0 -1 -40 -1 3 0 -40 0 4 0 0 -2 0 0 -83 -1 0 0 0 31 0 0 0 -20 -3 -1 0 0 0 0 0 14 -2 1 -2 -39 -16 0 0 0 0 -1 0 -80 -1 0 0 0 0 0 0 -4 0 1 0 0 0 0 0 -5 0 0 -4 0 4 0 1 0 0 0 0 -87 0 0 0 0 -3 0 0 9 0 0 -4 0 0 0 0 0 0 -6 0 0 5 0 -36 0 0 0 0 0 0 0 0 0 0 -4 0 11 0 0 0 0 0 0 0 -46 0 -1 0 0 0 0 -7 0 0 0 0 0 0 0 0 0 0 0 0 5 0 0 0 0 0 0 0 0 0 0 0 0 0 0 0 3 0 0 0 0 0 0 0 3 5 0 0 0 0 0 0 0 0 0 -5 0 0 0 0 0 0 0 0 0 0 0 0 0 0 0 0 0 0 0 0 0 0 0 4 0 0 0 0 0 16 0 0 0 0 0 0 12 0 43 0 0 0 0 0 10 0 0 0 -1 0 0 0 0 0 0 0 0 0 0 0 2 0 0 0 0 0 0 0 0 0 0 0 2 0 2 0 0 0 0 0 0 0 0 0 -4 -16 0 0 0 0 0 0 0 0 -87 0 -1 31 -7 -4 0 1 -1 0 0 4 -14 0 0 3 0 -3 10 0 0 0 0 -3 0 0 0 -3 -5 0 0 5 0 0 0 0 0 0 0 0 0 0 -1 -11 -43 0 0 -10 0 0 1 0 0 0 0 -2 0 0 0 0 0 0 0 0 -2 0 -2 0 0 0 0 4 16 0 0 0 0 0 0 0 0 0 0 0 0 0 0 0 0 0 0 0 0 0 0 0 0 0 0 0 0 0 0 0 0 0 0 0 0 0 0 0 0 0 0 0 0 0 0 0 0 0 0 0 0 0 0 0 0 0 0 0 0 0 0 0 0 0 0 0 0 0 0 0 0 0 0 
-6 0 -6 0 0 0 0 0 0 0 -6 0 0 0 0 0 0 0 0 0 0 0 0 0 0 0 0 0 0 0 0 0 0 0 0 0 0 0 0 0 0 0 0 0 0 0 0 0 0 0 0 0 0 0 0 0 0 0 0 0 0 0 0 0 0 0 0 0 0 0 0 0 0 0 0 0 0 0 0 0 0 0 0 0 0 0 0 0 0 0 0 0 0 0 0 0 0 0 0 0 0 0 0 0 0 0 0 0 0 0 0 0 0 0 0 0 0 0 0 0 0 0 0 0 0 0 0 0 0 0 0 0 0 0 0 0 0 0 0 0 0 0 0 0 0 0 0 0 0 0 0 0 0 0 0 0 0 0 0 0 0 0 0 0 0 0 0 0 0 0 0 0 0 0 0 0 0 0 0 0 0 0 0 0 0 0 0 0 0 0 0 0 0 0 0 0 0 0 0 0 0 0 0 0 0 0 0 0 0 0 0 0 0 0 0 0 0 0 0 0 0 0 0 0 0 0 0 0 0 0 0 0 0 0 0 0 0 0 0 0 0 0 0 0 0 0 0 0 0 0 0 0 0 0 0 0 0 0 0 0 0 0 0 0 0 0 0 0 0 0 0 0 0 0 0 0 0 0 0 0 0 0 0 0 0 0 0 0 0 0 0 0 0 0 0 0 0 0 0 0 0 0 0 0 0 0 0 0 0 0 0 0 0 0 0 0 0 0 0 0 0 0 0 0 0 0 0 0 0 0 0 0 0 0 0 0 0 0 0 0 0 0 0 0 0 0 0 0 0 0 0 0 0 0 0 0 0 0 0 0 0 0 0 0 0 0 0 0 0 0 0 0 0 0 0 0 0 0 0 0 0 0 0 0 0 0 0 0 0 0 0 0 0 0 0 0 0 0 0 0 0 0 0 0 0 0 0 0 0 0 0 0 0 0 0 0 0 0 0 0 0 0 0 0 
-12 -12 -8 -4 0 -6 0 0 -5 0 0 0 0 -5 0 -7 0 0 0 -5 0 0 -3 0 0 0 0 1 0 -1 0 0 0 0 0 0 0 -6 0 0 0 0 0 0 0 -3 0 -1 0 0 0 0 0 -1 0 0 -1 0 0 0 0 0 0 2 0 0 0 0 0 0 0 0 0 0 0 0 5 0 0 0 0 0 0 0 0 0 0 0 0 0 0 0 0 0 0 0 0 0 0 0 0 -5 -5 0 0 0 0 0 0 0 -1 0 0 -20 0 0 0 0 -4 1 0 0 0 0 -4 0 0 0 0 0 0 0 0 0 -6 0 0 0 0 0 0 0 0 0 0 0 0 0 4 -3 0 0 0 0 0 0 0 0 0 0 0 0 0 0 0 0 0 0 0 0 0 0 0 0 0 0 0 3 0 -4 0 -4 0 0 0 0 0 0 0 0 0 0 0 0 0 0 0 0 0 0 0 0 0 0 0 0 0 0 0 0 0 0 0 0 0 0 0 0 0 2 0 0 1 0 0 0 0 0 0 0 0 0 0 0 0 0 0 -20 0 0 0 0 0 0 0 0 0 5 0 0 0 0 0 0 0 0 -2 0 4 0 0 0 0 0 0 2 0 0 0 0 0 0 0 0 0 0 0 0 0 3 0 0 0 0 0 -1 0 0 0 -1 4 0 0 0 0 0 0 -4 0 0 0 0 0 0 0 5 -5 -3 0 0 0 0 0 0 0 0 0 0 0 -1 -1 0 -1 0 0 0 0 0 0 0 0 0 0 0 0 0 -5 0 0 0 0 0 2 0 -4 0 -5 3 0 0 0 0 0 0 0 0 0 0 0 0 0 0 0 0 0 0 0 0 0 0 0 0 0 0 0 0 0 0 0 0 0 0 0 0 0 0 0 0 0 0 0 0 0 0 0 0 0 0 0 0 0 0 0 0 0 0 0 0 0 0 0 0 0 0 0 0 0 0 0 0 0 0 0 0 
-12 -24 -7 -46 0 -1 0 0 -2 -2 0 0 -12 -3 1 0 0 0 1 0 0 0 -3 -2 0 -2 -4 -1 0 0 0 12 0 0 0 0 0 0 0 0 0 0 0 -14 0 0 0 -20 -42 0 0 0 0 0 0 -4 0 0 -5 0 0 0 0 0 0 0 0 0 0 0 0 0 0 0 0 0 0 0 0 0 0 0 0 0 0 0 0 0 -2 0 0 -6 0 0 0 0 0 0 0 0 0 7 0 0 -10 0 0 0 0 0 0 0 0 0 0 0 1 -4 -3 0 0 0 0 0 0 0 0 0 0 0 0 0 0 0 7 14 -11 0 0 0 0 0 0 3 0 0 0 0 0 0 0 0 0 0 0 0 0 0 0 0 0 -11 0 0 0 0 0 0 0 0 0 0 0 0 0 0 0 3 0 0 0 0 0 0 0 0 0 0 0 0 0 0 0 0 -3 0 0 0 0 0 0 0 0 0 0 0 0 0 0 0 -1 0 -30 0 0 0 0 0 0 0 0 1 0 0 0 0 -11 0 0 0 0 0 0 0 0 0 0 0 0 0 0 0 0 -1 0 0 0 0 -11 0 1 0 0 0 0 0 0 0 0 0 0 0 0 0 0 0 0 0 -42 0 0 0 0 0 0 0 0 0 0 -1 13 -7 0 0 -8 0 0 0 4 -2 0 0 2 0 -2 0 0 0 0 0 0 0 0 0 0 0 0 -3 0 -1 0 0 0 0 0 0 1 0 0 0 0 -1 0 -5 0 0 0 0 0 0 0 0 1 0 0 0 0 14 -3 -1 0 0 0 0 0 0 0 0 0 42 0 0 0 0 0 0 0 0 0 0 0 0 0 0 0 0 0 0 0 0 0 0 0 0 0 0 0 0 0 0 0 0 0 0 0 0 0 0 0 0 0 0 0 0 0 0 0 0 0 0 0 0 0 0 0 0 0 0 0 0 0 0 0 0 0 0 0 0 0 0 0 0 0 0 
0 0 0 0 0 0 0 0 0 0 0 0 0 0 0 0 0 0 0 0 0 0 0 0 0 0 0 0 0 0 0 0 0 0 0 0 0 0 0 0 0 0 0 0 0 0 0 0 0 0 0 0 0 0 0 0 0 0 0 0 0 0 0 0 0 0 0 0 0 0 0 0 0 0 0 0 0 0 0 0 0 0 0 0 0 0 0 0 0 0 0 0 0 0 0 0 0 0 0 0 0 0 0 0 0 0 0 0 0 0 0 0 0 0 0 0 0 0 0 0 0 0 0 0 0 0 0 0 0 0 0 0 0 0 0 0 0 0 0 0 0 0 0 0 0 0 0 0 0 0 0 0 0 0 0 0 0 0 0 0 0 0 0 0 0 0 0 0 0 0 0 0 0 0 0 0 0 0 0 0 0 0 0 0 0 0 0 0 0 0 0 0 0 0 0 0 0 0 0 0 0 0 0 0 0 0 0 0 0 0 0 0 0 0 0 0 0 0 0 0 0 0 0 0 0 0 0 0 0 0 0 0 0 0 0 0 0 0 0 0 0 0 0 0 0 0 0 0 0 0 0 0 0 0 0 0 0 0 0 0 0 0 0 0 0 0 0 0 0 0 0 0 0 0 0 0 0 0 0 0 0 0 0 0 0 0 0 0 0 0 0 0 0 0 0 0 0 0 0 0 0 0 0 0 0 0 0 0 0 0 0 0 0 0 0 0 0 0 0 0 0 0 0 0 0 0 0 0 0 0 0 0 0 0 0 0 0 0 0 0 0 0 0 0 0 0 0 0 0 0 0 0 0 0 0 0 0 0 0 0 0 0 0 0 0 0 0 0 0 0 0 0 0 0 0 0 0 0 0 0 0 0 0 0 0 0 0 0 0 0 0 0 0 0 0 0 0 0 0 0 0 0 0 0 0 0 0 0 0 0 0 0 0 0 0 0 0 0 0 0 0 0 0 0 
#OUTPUT END
Model has been successfully processed
